NAME: tsp35_17
COMMENT: 35-tsp problem (Padberg/Rinaldi)
TYPE: TSP
DIMENSION: 35
EDGE_WEIGHT_TYPE : EUC_2D
NODE_COORD_SECTION
1 18 30
2 40 16
3 30 17
4 19 31
5 15 23
6 31 3
7 38 39
8 22 8
9 15 36
10 22 28
11 7 32
12 30 26
13 15 1
14 36 3
15 39 23
16 31 10
17 16 8
18 2 29
19 12 9
20 18 39
21 24 33
22 5 31
23 24 0
24 4 26
25 36 0
26 37 30
27 17 22
28 16 39
29 35 24
30 14 15
31 30 37
32 39 34
33 1 33
34 8 3
35 22 32
